20
2
20099
153 236
false
0.25
35 43 42 5 7 26 10 17 50 32 10 50 27 5 40 18 37 43 24 20
37 36 2 23 46 48 34 5 14 5 22 32 46 33 37 40 13 41 9 41
86 31 80 36 13 18 28 41 43 92 97 63 76 87 12 82 28 82 36 80
0 40 0 50 0 0 0 0 0 0 0 33 64 0 0 0 0 21 0 94
0 0 0 17 37 0 0 0 0 70 49 0 0 0 0 0 0 0 0
0 0 0 0 58 0 23 0 0 0 0 0 0 0 0 0 57 0
0 0 0 0 3 0 71 0 30 0 0 0 36 0 0 0 0
0 0 14 0 0 0 0 83 0 0 7 0 0 23 0 0
0 0 0 0 51 6 0 0 0 0 0 54 0 0 0
0 0 99 53 0 0 0 0 0 0 0 0 0 0
0 93 0 84 0 0 0 15 0 11 66 76 2
0 35 0 87 0 0 0 0 0 0 0 0
0 0 0 0 0 41 92 0 0 20 52
0 56 0 0 0 0 0 0 0 0
0 0 0 0 0 74 0 43 0
0 42 0 35 0 0 58 0
0 0 51 10 0 0 0
0 0 0 0 0 0
0 0 0 0 24
0 0 21 32
0 0 0
0 0
0 0 0 0 0 0 0 0 0 0 0 0 0 0 0 0 0 0 0
0 0 0 0 59 0 0 0 0 0 0 0 95 0 0 0 47 0
0 0 0 0 22 0 69 0 0 56 0 0 0 0 0 0 0
0 0 0 0 0 0 0 0 0 37 0 0 0 0 0 0
0 59 0 51 34 0 99 0 0 62 0 55 51 0 52
0 0 0 97 60 33 35 0 0 57 0 82 40 0
0 0 0 0 0 0 0 60 0 0 0 0 27
0 0 0 0 0 0 56 0 42 0 0 0
0 0 0 0 0 0 0 0 0 0 0
0 97 27 0 12 0 0 0 0 0
0 0 0 0 28 61 0 0 60
0 0 14 100 0 0 0 0
0 92 0 68 74 0 0
0 0 22 0 0 22
0 0 0 0 78
0 0 0 0
0 0 2
0 0
0
0 0 0 0 0 0 100 0 0 0 0 90 0 0 0 0 0 16
0 0 0 0 0 0 0 10 0 0 0 70 0 0 0 0 81
0 22 0 0 55 0 0 0 0 0 0 57 0 73 13 0
0 19 0 0 0 0 77 0 0 0 51 0 0 0 8
0 54 27 0 23 0 0 20 0 0 0 0 68 0
0 0 0 0 0 0 0 0 0 0 0 0 0
0 0 0 0 0 0 0 27 12 0 0 0
0 76 0 0 0 0 82 0 22 0 0
0 0 0 0 0 0 0 0 0 0
0 0 0 0 0 0 47 0 0
0 0 0 0 0 0 0 0
0 0 0 7 98 0 0
0 0 15 0 0 0
0 0 0 0 77
0 0 0 100
0 0 0
0 0
0
0 0 0 0 0 0 0 0 85 0 0 0 0 64 0 0 0
0 0 0 0 0 78 0 0 0 0 56 0 0 0 88 0
0 0 0 0 0 78 0 0 0 0 0 0 0 0 33
0 98 0 0 0 0 0 3 54 45 58 74 0 0
0 0 0 29 0 0 0 0 0 0 0 21 0
0 0 7 88 0 57 0 0 0 0 0 0
0 0 0 0 0 0 0 0 63 18 0
0 0 0 50 0 0 89 0 0 86
0 83 0 0 0 0 0 34 0
0 0 100 0 0 0 51 0
0 0 0 0 0 0 0
0 83 94 0 0 0
0 0 0 0 0
0 0 0 55
0 0 0
0 0
0
0 0 0 0 34 0 0 0 0 60 0 71 0 0 42 28
0 0 75 0 0 0 0 0 0 0 0 0 0 0 0
0 96 0 0 78 0 0 0 54 0 0 0 68 0
0 0 0 0 0 0 0 0 0 0 46 0 0
0 0 95 0 0 0 0 0 41 0 0 0
0 36 0 62 30 0 0 0 0 0 0
0 80 0 0 0 91 0 0 17 0
0 0 0 0 0 69 0 0 0
0 0 0 62 71 30 0 0
0 0 0 23 0 0 0
0 0 0 9 0 44
0 0 0 19 0
0 0 0 0
0 0 0
0 0
0
0 0 0 0 90 0 0 0 0 0 0 0 0 0 0
0 85 0 42 82 0 0 0 0 0 79 79 0 94
0 0 0 0 0 0 0 0 77 48 26 0 0
0 11 41 81 46 0 30 0 0 0 0 0
0 39 0 0 0 0 0 0 0 0 0
0 0 0 0 0 55 0 96 92 0
0 0 24 77 0 0 0 97 0
0 0 41 0 22 33 0 0
0 31 0 87 0 0 0
0 46 98 0 0 0
0 55 0 0 0
0 0 0 94
0 0 33
0 0
0
0 0 0 0 0 0 89 0 0 0 0 66 0 0
0 0 13 31 0 0 84 0 0 0 0 0 0
0 30 0 0 0 0 0 0 0 0 79 0
0 0 0 0 0 0 0 79 0 67 0
0 0 0 0 70 0 0 0 6 59
0 0 11 10 0 77 36 0 0
0 0 0 0 0 0 0 0
0 8 0 0 0 0 0
0 97 0 62 60 0
0 0 0 0 90
0 0 0 0
0 0 58
0 0
0
0 0 0 0 0 76 0 0 0 0 0 0 59
0 0 0 0 0 0 0 23 25 0 44 88
0 11 0 0 18 0 0 0 0 0 0
0 0 31 23 0 0 0 63 0 91
0 0 0 0 0 31 0 43 95
0 0 0 0 0 0 0 0
0 0 70 0 0 0 0
0 0 0 0 0 0
0 18 0 0 23
0 0 19 0
0 42 0
0 0
0
0 0 0 0 0 55 0 78 0 35 93 0
0 0 20 0 96 0 0 36 16 0 0
0 53 0 0 0 0 0 0 0 0
0 42 0 0 0 0 0 0 0
0 0 0 0 84 0 0 0
0 0 41 3 0 31 0
0 35 0 0 0 0
0 70 32 0 0
0 60 0 84
0 0 0
0 0
0
0 0 0 0 0 0 0 0 0 0 0
0 0 0 75 0 46 0 0 0 0
0 0 0 0 0 0 0 65 0
0 0 0 0 31 0 0 0
0 68 0 0 0 0 0
0 0 0 15 0 0
0 95 86 0 59
0 0 8 0
0 0 0
0 94
0
0 0 0 94 0 81 0 43 98 0
0 0 0 37 0 0 95 0 0
0 0 58 0 0 23 55 0
0 0 0 40 41 0 14
0 0 0 0 0 0
0 56 0 49 0
0 0 0 0
0 70 0
0 19
0
0 0 0 0 0 0 0 0 90
0 0 0 0 59 0 0 0
0 0 0 0 0 0 0
0 0 0 0 0 60
0 27 0 52 88
0 0 0 0
0 0 0
0 0
0
0 0 0 0 0 59 0 0
0 0 53 0 0 0 0
0 0 0 0 79 0
0 67 0 0 0
0 0 0 0
0 0 0
0 0
0
0 69 0 94 0 0 0
0 0 0 0 0 49
0 59 0 0 0
0 0 0 0
0 0 0
0 0
0
0 0 0 0 0 0
0 0 0 13 0
0 43 0 0
0 9 0
0 0
0
0 0 0 3 0
0 0 0 0
0 0 0
0 19
0
0 0 0 0
0 78 0
0 77
0
0 5 48
0 0
0
0 0
0
0
2582 1741 2447 2114 2802 2264 3122 2382 2473 2615 3010 2701 1986 2094 2211 3047 2877 2215 2303 2538
71.77760617760617 44.424741602067186 640.8809523809524 257.35652173913047 230.59937888198758 67.12179487179488 202.01176470588234 308.25882352941176 113.05142857142857 302.359375 218.9090909090909 69.213125 58.36473429951691 241.12727272727273 57.515878378378375 122.72638888888889 149.53222453222455 52.76800907543959 175.92361111111111 94.40121951219513
